SPARKNaCl/why3-z3/sparknacl-scalar.adb_22_26_range_check_1.smt2
;; produced by z3_gnatprove.drv ;;
(set-info :smt-lib-version 2.5)
(set-info :source |VC generated by SPARK 2014|)
(set-info :category industrial)
(set-info :status unknown)
;;; generated by SMT-LIB2 driver
;;; SMT-LIB2 driver: bit-vectors, common part
;;; SMT-LIB2: integer arithmetic
(declare-datatypes ()
  ((int__ref (int__refqtmk (int__content Int)))))

(declare-datatypes ()
  ((bool__ref (bool__refqtmk (bool__content Bool)))))

;; "length"
(define-fun length ((x Int) (y Int)) Int
  (ite (<= x y) (+ (- y x) 1) 0))

(declare-datatypes ()
  ((t__ref (t__refqtmk (t__content (_ BitVec 8))))))

(declare-sort byte 0)

;; "to_rep"
(declare-fun to_rep (byte) (_ BitVec 8))

;; "of_rep"
(declare-fun of_rep ((_ BitVec 8)) byte)

;; "inversion_axiom"
(assert
  (forall ((x byte)) (! (= (of_rep (to_rep x)) x) :pattern ((to_rep x)) )))

;; "range_axiom"
(assert true)

;; "coerce_axiom"
(assert
  (forall ((x (_ BitVec 8)))
    (! (= (to_rep (of_rep x)) x) :pattern ((to_rep (of_rep x))) )))

(declare-sort map1 0)

(declare-datatypes ()
  ((map__ref (map__refqtmk (map__content map1)))))

;; "has_bounds"
(declare-fun has_bounds (map1
  Int
  Int) Bool)

;; "get"
(declare-fun get (map1
  Int) byte)

;; "slice"
(declare-fun slice (map1
  Int
  Int) map1)

;; "slice_eq"
(assert
  (forall ((a map1) (f Int) (l Int))
    (! (=> (has_bounds a f l) (= (slice a f l) a)) :pattern ((slice a f l)
    (has_bounds a f l)) )))

;; "slice_slice"
(assert
  (forall ((a map1) (f1 Int) (l1 Int) (f2 Int) (l2 Int))
    (! (=>
         (and (<= f1 f2) (<= l2 l1))
         (= (slice (slice a f1 l1) f2 l2) (slice a f2 l2))) :pattern (
    (slice
      (slice a f1 l1)
      f2
      l2)) )))

;; "slice_def"
(assert
  (forall ((a map1) (f Int) (l Int))
    (! (forall ((i Int))
         (! (=> (and (<= f i) (<= i l)) (= (get (slice a f l) i) (get a i))) :pattern (
         (get
           (slice a f l)
           i)) :pattern ((get a i)) )) :pattern ((slice a f l)) )))

;; "slice_has_bounds"
(assert
  (forall ((a map1) (f Int) (l Int))
    (! (has_bounds (slice a f l) f l) :pattern ((has_bounds
                                                  (slice a f l)
                                                  f
                                                  l)) )))

(declare-const n map1)

(declare-const p map1)

(declare-sort gf16_normal_limb 0)

;; "to_rep"
(declare-fun to_rep1 (gf16_normal_limb) (_ BitVec 16))

;; "of_rep"
(declare-fun of_rep1 ((_ BitVec 16)) gf16_normal_limb)

;; "inversion_axiom"
(assert
  (forall ((x gf16_normal_limb))
    (! (= (of_rep1 (to_rep1 x)) x) :pattern ((to_rep1 x)) )))

;; "range_axiom"
(assert true)

;; "coerce_axiom"
(assert
  (forall ((x (_ BitVec 16)))
    (! (= (to_rep1 (of_rep1 x)) x) :pattern ((to_rep1 (of_rep1 x))) )))

(declare-sort map2 0)

(declare-datatypes ()
  ((map__ref1 (map__refqtmk1 (map__content1 map2)))))

;; "has_bounds"
(declare-fun has_bounds1 (map2
  Int
  Int) Bool)

;; "get"
(declare-fun get1 (map2
  Int) gf16_normal_limb)

(declare-const gf_121665 map2)

;; "unpack_25519"
(declare-fun unpack_25519 (map1) map2)

;; "unpack_25519__function_guard"
(declare-fun unpack_25519__function_guard (map2
  map1) Bool)

(declare-const gf_0 map2)

(declare-const gf_1 map2)

(declare-sort tinteger_32B 0)

;; "tinteger_32B'int"
(declare-fun tinteger_32Bqtint (tinteger_32B) Int)

;; "tinteger_32B'axiom"
(assert
  (forall ((i tinteger_32B))
    (and
      (<= (- 2147483648) (tinteger_32Bqtint i))
      (<= (tinteger_32Bqtint i) 2147483647))))

;; "in_range"
(define-fun in_range ((x Int)) Bool
  (and (<= (- 2147483648) x) (<= x 2147483647)))

;; "to_rep"
(define-fun to_rep2 ((x tinteger_32B)) Int
  (tinteger_32Bqtint x))

;; "of_rep"
(declare-fun of_rep2 (Int) tinteger_32B)

;; "inversion_axiom"
(assert
  (forall ((x tinteger_32B))
    (! (= (of_rep2 (to_rep2 x)) x) :pattern ((to_rep2 x)) )))

;; "range_axiom"
(assert
  (forall ((x tinteger_32B))
    (! (in_range (to_rep2 x)) :pattern ((to_rep2 x)) )))

;; "coerce_axiom"
(assert
  (forall ((x Int))
    (! (=> (in_range x) (= (to_rep2 (of_rep2 x)) x)) :pattern ((to_rep2
                                                                 (of_rep2 x))) )))

;; "ada___sparknacl__scalar__gf_121665__aggregate_def"
(declare-fun ada___sparknacl__scalar__gf_121665__aggregate_def ((_ BitVec 16)
  (_ BitVec 16)
  (_ BitVec 16)) map2)

;; "sparknacl__gf_0__aggregate_def"
(declare-fun sparknacl__gf_0__aggregate_def ((_ BitVec 16)) map2)

;; "sparknacl__gf_1__aggregate_def"
(declare-fun sparknacl__gf_1__aggregate_def ((_ BitVec 16)
  (_ BitVec 16)) map2)

;; "gf_121665__def_axiom"
(assert
  (= gf_121665 (let ((temp___185 (ada___sparknacl__scalar__gf_121665__aggregate_def
                                   #xDB41
                                   #x0001
                                   #x0000)))
                 (let ((temp___186 temp___185)) temp___186))))

;; "def_axiom"
(assert
  (forall ((temp___179 (_ BitVec 16)) (temp___180 (_ BitVec 16)) (temp___181 (_ BitVec 16)))
    (let ((temp___182 (ada___sparknacl__scalar__gf_121665__aggregate_def
                        temp___179
                        temp___180
                        temp___181)))
      (and
        (and
          (and
            (= (to_rep1 (get1 temp___182 0)) temp___179)
            (= (to_rep1 (get1 temp___182 1)) temp___180))
          (=>
            (and (and (<= 0 0) (<= 0 15)) (and (<= 0 1) (<= 1 15)))
            (has_bounds1 temp___182 0 15)))
        (forall ((temp___183 Int))
          (! (=>
               (and (<= 0 temp___183) (<= temp___183 15))
               (=>
                 (and (not (= temp___183 0)) (not (= temp___183 1)))
                 (= (to_rep1 (get1 temp___182 temp___183)) temp___181))) :pattern (
          (get1
            temp___182
            temp___183)) ))))))

;; "gf_0__def_axiom"
(assert
  (= gf_0 (let ((temp___192 (sparknacl__gf_0__aggregate_def #x0000)))
            (let ((temp___193 temp___192)) temp___193))))

;; "def_axiom"
(assert
  (forall ((temp___188 (_ BitVec 16)))
    (let ((temp___189 (sparknacl__gf_0__aggregate_def temp___188)))
      (and
        (has_bounds1 temp___189 0 15)
        (forall ((temp___190 Int))
          (! (=>
               (and (<= 0 temp___190) (<= temp___190 15))
               (= (to_rep1 (get1 temp___189 temp___190)) temp___188)) :pattern (
          (get1
            temp___189
            temp___190)) ))))))

;; "gf_1__def_axiom"
(assert
  (= gf_1 (let ((temp___199 (sparknacl__gf_1__aggregate_def #x0001 #x0000)))
            (let ((temp___200 temp___199)) temp___200))))

;; "def_axiom"
(assert
  (forall ((temp___194 (_ BitVec 16)) (temp___195 (_ BitVec 16)))
    (let ((temp___196 (sparknacl__gf_1__aggregate_def temp___194 temp___195)))
      (and
        (and
          (= (to_rep1 (get1 temp___196 0)) temp___194)
          (=> (and (<= 0 0) (<= 0 15)) (has_bounds1 temp___196 0 15)))
        (forall ((temp___197 Int))
          (! (=>
               (and (<= 0 temp___197) (<= temp___197 15))
               (=>
                 (not (= temp___197 0))
                 (= (to_rep1 (get1 temp___196 temp___197)) temp___195))) :pattern (
          (get1
            temp___196
            temp___197)) ))))))

(declare-const swap Bool)

(declare-const cb (_ BitVec 8))

(declare-const shift Int)

(declare-const a map2)

(declare-const b map2)

(declare-const c map2)

(declare-const d map2)

(declare-const e map2)

(declare-const f map2)

(declare-const t1 map2)

(declare-const t2 map2)

(declare-const result__ map1)

;; "result__'unused"
(define-fun result__qtunused () map__ref
  (map__refqtmk result__))

;; "t2'unused"
(define-fun t2qtunused () map__ref1
  (map__refqtmk1 t2))

;; "t1'unused"
(define-fun t1qtunused () map__ref1
  (map__refqtmk1 t1))

;; "f'unused"
(define-fun fqtunused () map__ref1
  (map__refqtmk1 f))

;; "e'unused"
(define-fun eqtunused () map__ref1
  (map__refqtmk1 e))

;; "d'unused"
(define-fun dqtunused () map__ref1
  (map__refqtmk1 d))

;; "c'unused"
(define-fun cqtunused () map__ref1
  (map__refqtmk1 c))

;; "b'unused"
(define-fun bqtunused () map__ref1
  (map__refqtmk1 b))

;; "a'unused"
(define-fun aqtunused () map__ref1
  (map__refqtmk1 a))

;; "shift'unused"
(define-fun shiftqtunused () int__ref
  (int__refqtmk shift))

;; "cb'unused"
(define-fun cbqtunused () t__ref
  (t__refqtmk cb))

;; "swap'unused"
(define-fun swapqtunused () bool__ref
  (bool__refqtmk swap))

;; "Assume"
(assert (has_bounds1 gf_121665 0 15))

(declare-const temp___511 map2)

;; "H"
(assert (= (to_rep1 (get1 temp___511 0)) #xDB41))

;; "H"
(assert (= (to_rep1 (get1 temp___511 1)) #x0001))

;; "H"
(assert (has_bounds1 temp___511 0 15))

;; "H"
(assert
  (forall ((temp___184 Int))
    (! (=>
         (and (<= 0 temp___184) (<= temp___184 15))
         (=>
           (and (not (= temp___184 0)) (not (= temp___184 1)))
           (= (to_rep1 (get1 temp___511 temp___184)) #x0000))) :pattern (
    (get1
      temp___511
      temp___184)) )))

;; "H"
(assert
  (= temp___511 (ada___sparknacl__scalar__gf_121665__aggregate_def
                  #xDB41
                  #x0001
                  #x0000)))

;; "ada___sparknacl__scalar__gf_121665__aggregate_def'result'unused"
(define-fun ada___sparknacl__scalar__gf_121665__aggregate_defqtresultqtunused 
  () map2
  temp___511)

;; "Assume"
(assert (= temp___511 gf_121665))

;; "Assume"
(assert (has_bounds1 gf_0 0 15))

(declare-const temp___516 map2)

;; "H"
(assert (has_bounds1 temp___516 0 15))

;; "H"
(assert
  (forall ((temp___191 Int))
    (! (=>
         (and (<= 0 temp___191) (<= temp___191 15))
         (= (to_rep1 (get1 temp___516 temp___191)) #x0000)) :pattern (
    (get1
      temp___516
      temp___191)) )))

;; "H"
(assert (= temp___516 (sparknacl__gf_0__aggregate_def #x0000)))

;; "sparknacl__gf_0__aggregate_def'result'unused"
(define-fun sparknacl__gf_0__aggregate_defqtresultqtunused () map2
  temp___516)

;; "Assume"
(assert (= temp___516 gf_0))

;; "Assume"
(assert (has_bounds1 gf_1 0 15))

(declare-const temp___522 map2)

;; "H"
(assert (= (to_rep1 (get1 temp___522 0)) #x0001))

;; "H"
(assert (has_bounds1 temp___522 0 15))

;; "H"
(assert
  (forall ((temp___198 Int))
    (! (=>
         (and (<= 0 temp___198) (<= temp___198 15))
         (=>
           (not (= temp___198 0))
           (= (to_rep1 (get1 temp___522 temp___198)) #x0000))) :pattern (
    (get1
      temp___522
      temp___198)) )))

;; "H"
(assert (= temp___522 (sparknacl__gf_1__aggregate_def #x0001 #x0000)))

;; "sparknacl__gf_1__aggregate_def'result'unused"
(define-fun sparknacl__gf_1__aggregate_defqtresultqtunused () map2
  temp___522)

;; "Assume"
(assert (= temp___522 gf_1))

;; "Assume"
(assert (has_bounds n 0 31))

;; "Assume"
(assert (has_bounds p 0 31))

;; "o"
(define-fun o () map1
  p)

;; "o"
(define-fun o1 () map2
  (unpack_25519 o))

;; "H"
(assert (unpack_25519__function_guard o1 o))

;; "H"
(assert (has_bounds1 o1 0 15))

;; "unpack_25519'result'unused"
(define-fun unpack_25519qtresultqtunused () map2
  o1)

(declare-const x map2)

;; "x'unused"
(define-fun xqtunused () map__ref1
  (map__refqtmk1 x))

;; "H"
(assert (= x o1))

;; "Assume"
(assert (has_bounds1 x 0 15))

;; "o"
(define-fun o2 () byte
  (get n 31))

;; "get'result'unused"
(define-fun getqtresultqtunused () byte
  o2)

(declare-const o3 (_ BitVec 8))

;; "Ensures"
(assert (= (to_rep o2) o3))

;; "to_rep'result'unused"
(define-fun to_repqtresultqtunused () (_ BitVec 8)
  o3)

;; "o"
(define-fun o4 () (_ BitVec 8)
  (bvand o3 #x7F))

;; "bw_and'result'unused"
(define-fun bw_andqtresultqtunused () (_ BitVec 8)
  o4)

;; "temp___414"
(define-fun temp___414 () (_ BitVec 8)
  (bvor o4 #x40))

;; "bw_or'result'unused"
(define-fun bw_orqtresultqtunused () (_ BitVec 8)
  temp___414)

;; "Assert"
(assert
  (=> (<= 1 30) (and (and (<= 0 1) (<= 1 31)) (and (<= 0 30) (<= 30 31)))))

;; "temp___412"
(define-fun temp___412 () map1
  (slice n 1 30))

;; "slice'result'unused"
(define-fun sliceqtresultqtunused () map1
  temp___412)

;; "o"
(define-fun o5 () byte
  (get n 0))

;; "get'result'unused"
(define-fun getqtresultqtunused1 () byte
  o5)

(declare-const o6 (_ BitVec 8))

;; "Ensures"
(assert (= (to_rep o5) o6))

;; "to_rep'result'unused"
(define-fun to_repqtresultqtunused1 () (_ BitVec 8)
  o6)

;; "temp___411"
(define-fun temp___411 () (_ BitVec 8)
  (bvand o6 #xF8))

;; "bw_and'result'unused"
(define-fun bw_andqtresultqtunused1 () (_ BitVec 8)
  temp___411)

;; "o"
(define-fun o7 () Int
  (length 1 30))

;; "length'result'unused"
(define-fun lengthqtresultqtunused () Int
  o7)

;; "o"
(define-fun o8 () Int
  (+ 1 o7))

;; "infix +'result'unused"
(define-fun infix_plqtresultqtunused () Int
  o8)

;; "o"
(define-fun o9 () Int
  (+ 0 o8))

;; "infix +'result'unused"
(define-fun infix_plqtresultqtunused1 () Int
  o9)

;; "o"
(define-fun o10 () Int
  (- o9 1))

;; "infix -'result'unused"
(define-fun infix_mnqtresultqtunused () Int
  o10)

;; Goal "def'vc"
;; File "sparknacl-scalar.ads", line 9, characters 0-0
(assert
  (not (<= 0 o10)))

(check-sat)
